1442
0	40	86	167	270
0	45	95	189	342
0	59	186	256	334
80	124	230	311	351
101	294	366	410	434
6	289	410	493	524
0	77	167	256	411
150	286	493	570	611
318	419	524	608	680
46	510	611	679	708
598	651	686	694	788
342	643	846	957	981
697	786	859	1028	1120
725	942	1028	1055	1207
247	795	854	1120	1205
570	694	793	854	1205
697	771	859	906	1244
0	994	1087	1303	1352
1087	1154	1246	1348	1416
704	871	910	1108	1304
